p td 22 141
4 3
4 2
4 1
5 2
5 4
6 3
6 2
6 5
6 4
7 3
7 1
7 4
7 5
7 6
8 4
8 5
8 2
8 7
8 3
9 3
9 6
9 8
9 2
9 1
9 7
10 8
10 7
10 9
10 6
10 4
10 3
10 2
11 3
11 6
11 7
11 4
11 5
11 2
11 8
11 1
11 9
12 11
12 5
12 8
12 2
12 10
12 1
13 9
13 1
13 8
13 11
13 10
13 3
13 2
13 5
14 11
14 7
14 13
14 6
14 8
14 1
14 12
14 2
15 4
15 12
15 6
15 7
15 10
15 9
15 11
15 8
15 13
16 7
16 11
16 10
16 2
16 12
16 3
17 14
17 8
17 13
17 1
17 5
17 10
17 7
17 2
17 11
17 12
17 3
18 14
18 13
18 6
18 2
18 15
18 5
18 16
18 3
18 10
18 12
18 1
18 17
19 1
19 9
19 3
19 6
19 4
19 17
19 11
20 7
20 17
20 16
20 2
20 8
20 12
20 18
20 10
20 6
20 19
21 12
21 19
21 2
21 1
21 14
21 8
21 10
21 4
21 9
21 16
22 9
22 11
22 7
22 20
22 19
22 16
22 3
22 10
22 17
22 1
22 18
22 21
22 8
